min: 96 x1_1 + 8 x1_2 + 99 x1_3 + 37 x1_4 + 8 x1_5 + 87 x1_6 + 72 x2_1 + 60 x2_2 + 50 x2_3 + 85 x2_4 + 50 x2_5 + 63 x2_6 + 5 x3_1 + 98 x3_2 + 92 x3_3 + 48 x3_4 + 32 x3_5 + 4 x3_6 + 10 x4_1 + 37 x4_2 + 93 x4_3 + 67 x4_4 + 74 x4_5 + 29 x4_6 + 57 x5_1 + 75 x5_2 + 7 x5_3 + 76 x5_4 + 100 x5_5 + 71 x5_6 + 36 x6_1 + 46 x6_2 + 33 x6_3 + 61 x6_4 + 67 x6_5 + 67 x6_6;

x1_1 + x1_2 + x1_3 + x1_4 + x1_5 + x1_6 = 888;
x2_1 + x2_2 + x2_3 + x2_4 + x2_5 + x2_6 = 3519;
x3_1 + x3_2 + x3_3 + x3_4 + x3_5 + x3_6 = 4993;
x4_1 + x4_2 + x4_3 + x4_4 + x4_5 + x4_6 = 1393;
x5_1 + x5_2 + x5_3 + x5_4 + x5_5 + x5_6 = 3340;
x6_1 + x6_2 + x6_3 + x6_4 + x6_5 + x6_6 = 803;

x1_1 + x2_1 + x3_1 + x4_1 + x5_1 + x6_1 = 5886;
x1_2 + x2_2 + x3_2 + x4_2 + x5_2 + x6_2 = 595;
x1_3 + x2_3 + x3_3 + x4_3 + x5_3 + x6_3 = 4580;
x1_4 + x2_4 + x3_4 + x4_4 + x5_4 + x6_4 = 319;
x1_5 + x2_5 + x3_5 + x4_5 + x5_5 + x6_5 = 2653;
x1_6 + x2_6 + x3_6 + x4_6 + x5_6 + x6_6 = 903;

int x1_1, x1_2, x1_3, x1_4, x1_5, x1_6, x2_1, x2_2, x2_3, x2_4, x2_5, x2_6, x3_1, x3_2, x3_3, x3_4, x3_5, x3_6, x4_1, x4_2, x4_3, x4_4, x4_5, x4_6, x5_1, x5_2, x5_3, x5_4, x5_5, x5_6, x6_1, x6_2, x6_3, x6_4, x6_5, x6_6;